
Gurobi 12.0.2 (win64) logging started Tue Jan  6 16:10:46 2026

Set parameter LogFile to value "C:\Ioana\_uni\honours\slp\algorithm\Main_files\results\arachidonic_acid_metabolism\Task_005_Sample007_irr_gurobi.log"
Gurobi Optimizer version 12.0.2 build v12.0.2rc0 (win64 - Windows 11.0 (26100.2))

CPU model: Intel(R) Core(TM) Ultra 5 125H, instruction set [SSE2|AVX|AVX2]
Thread count: 14 physical cores, 18 logical processors, using up to 18 threads

Non-default parameters:
TimeLimit  2200

Optimize a model with 47236 rows, 34505 columns and 146715 nonzeros
Model fingerprint: 0x65b05d4e
Variable types: 17256 continuous, 17249 integer (17249 binary)
Coefficient statistics:
  Matrix range     [1e-04, 8e+04]
  Objective range  [1e-04, 9e-01]
  Bounds range     [1e+00, 1e+03]
  RHS range        [1e+00, 1e+00]
Presolve removed 30785 rows and 21551 columns
Presolve time: 0.33s
Presolved: 16451 rows, 12954 columns, 54679 nonzeros
Variable types: 6409 continuous, 6545 integer (6545 binary)
Found heuristic solution: objective 10.1155833

Root relaxation: objective 7.242650e-05, 40 iterations, 0.02 seconds (0.01 work units)

    Nodes    |    Current Node    |     Objective Bounds      |     Work
 Expl Unexpl |  Obj  Depth IntInf | Incumbent    BestBd   Gap | It/Node Time

     0     0    0.00007    0    3   10.11558    0.00007   100%     -    0s
H    0     0                       0.0724265    0.00007   100%     -    0s
     0     0    0.07069    0    4    0.07243    0.07069  2.39%     -    0s

Cutting planes:
  Cover: 1
  Flow cover: 3
  Flow path: 2
  Relax-and-lift: 3

Explored 1 nodes (1241 simplex iterations) in 0.62 seconds (0.69 work units)
Thread count was 18 (of 18 available processors)

Solution count 2: 0.0724265 10.1156 

Optimal solution found (tolerance 1.00e-04)
Best objective 7.242649563784e-02, best bound 7.242649563784e-02, gap 0.0000%
